[TITLE]
;; Minimal sample SWMM model for Urban Hydro-Coupler testing/demo.
;; A single subcatchment draining to Node1, which drains to Outfall1.

[OPTIONS]
FLOW_UNITS           CMS
INFILTRATION         HORTON
FLOW_ROUTING          KINWAVE
START_DATE            01/01/2020
START_TIME            00:00:00
REPORT_START_DATE     01/01/2020
REPORT_START_TIME     00:00:00
END_DATE               01/03/2020
END_TIME                00:00:00
REPORT_STEP            01:00:00
WET_STEP                00:05:00
DRY_STEP                01:00:00
ROUTING_STEP            0:05:00

[EVAPORATION]
CONSTANT         0.0

[RAINGAGES]
;;Name           Format    Interval SCF      Source
RG1              INTENSITY 1:00     1.0      TIMESERIES TS1

[SUBCATCHMENTS]
;;Name           Rain Gage        Outlet           Area     %Imperv  Width    %Slope   CurbLen
S1               RG1              Node1            5        40       500      0.5      0

[SUBAREAS]
;;Subcatchment   N-Imperv   N-Perv   S-Imperv   S-Perv   PctZero   RouteTo
S1               0.01       0.1      0.05       0.05     25        OUTLET

[INFILTRATION]
;;Subcatchment   MaxRate  MinRate  Decay    DryTime  MaxInfil
S1               3.0      0.5      4        7        0

[JUNCTIONS]
;;Name           Elevation  MaxDepth   InitDepth  SurDepth  Aponded
Node1            95         4          0          0         0

[OUTFALLS]
;;Name           Elevation  Type       Stage Data       Gated
Outfall1         90         FREE                          NO

[CONDUITS]
;;Name           From Node        To Node          Length   Roughness  InOffset  OutOffset
C1               Node1            Outfall1         400      0.01       0         0

[XSECTIONS]
;;Link           Shape        Geom1    Geom2  Geom3  Geom4
C1               CIRCULAR     1.0      0      0      0

[TIMESERIES]
;;Name           Date       Time     Value
TS1                         0:00     0.0
TS1                         1:00     5.0
TS1                         2:00     10.0
TS1                         3:00     2.0
TS1                         4:00     0.0

[REPORT]
INPUT      NO
CONTROLS   NO
SUBCATCHMENTS ALL
NODES      ALL
LINKS      ALL

[TAGS]

[MAP]
DIMENSIONS 0.000 0.000 10000.000 10000.000
Units      None

[COORDINATES]
;;Node           X-Coord            Y-Coord
Node1            5000.000           6000.000
Outfall1         5000.000           4000.000

[VERTICES]

[Polygons]
S1               4000.000           7000.000
S1               6000.000           7000.000
S1               6000.000           6000.000
S1               4000.000           6000.000

[SYMBOLS]
RG1              1000.000           9000.000
